MLT02
Position Depot: Random
Horizon for Depot: Large
Position of customers: Mixt
Distribution of the demand: Large
Width of time windows: Tight
Distribution of the service: Large

VEHICLE 
NUMBER 	 CAPACITY 
 5 	 	 880 
 
CUSTOMER
CUST NO. 	 XCOORD.  	 YCOORD. 	 DEMAND 	 READY TIME 	 DUE DATE 	 SERVICE TIME 
 0 	 	 21 	 	 657 	 	 0 	 	 0 	 	 4711 	 	 0 
  1 	 	 890 	 	 255 	 	 62 	 	 2643 	 	 2697 	 	 195 
  2 	 	 502 	 	 885 	 	 36 	 	 478 	 	 585 	 	 104 
  3 	 	 549 	 	 238 	 	 6 	 	 3824 	 	 3959 	 	 114 
  4 	 	 736 	 	 472 	 	 31 	 	 3036 	 	 3187 	 	 143 
  5 	 	 427 	 	 507 	 	 28 	 	 1835 	 	 1936 	 	 105 
  6 	 	 490 	 	 217 	 	 28 	 	 920 	 	 1081 	 	 184 
  7 	 	 391 	 	 607 	 	 39 	 	 3349 	 	 3502 	 	 124 
  8 	 	 381 	 	 199 	 	 70 	 	 3465 	 	 3516 	 	 104 
  9 	 	 790 	 	 463 	 	 57 	 	 2181 	 	 2313 	 	 187 
  10 	 	 539 	 	 853 	 	 67 	 	 1613 	 	 1787 	 	 140 
  11 	 	 507 	 	 226 	 	 4 	 	 3784 	 	 3931 	 	 108 
  12 	 	 360 	 	 503 	 	 12 	 	 2313 	 	 2488 	 	 157 
  13 	 	 369 	 	 450 	 	 76 	 	 740 	 	 895 	 	 188 
  14 	 	 812 	 	 305 	 	 32 	 	 2638 	 	 2784 	 	 171 
  15 	 	 407 	 	 873 	 	 59 	 	 1354 	 	 1420 	 	 115 
  16 	 	 741 	 	 253 	 	 31 	 	 1552 	 	 1683 	 	 116 
  17 	 	 441 	 	 532 	 	 58 	 	 1325 	 	 1431 	 	 130 
  18 	 	 711 	 	 436 	 	 32 	 	 2510 	 	 2612 	 	 104 
  19 	 	 467 	 	 909 	 	 82 	 	 4465 	 	 4539 	 	 104 
  20 	 	 494 	 	 905 	 	 18 	 	 3636 	 	 3707 	 	 192 
  21 	 	 396 	 	 522 	 	 59 	 	 1056 	 	 1162 	 	 109 
  22 	 	 917 	 	 252 	 	 11 	 	 883 	 	 1081 	 	 133 
  23 	 	 563 	 	 207 	 	 38 	 	 2599 	 	 2763 	 	 191 
  24 	 	 770 	 	 497 	 	 25 	 	 797 	 	 882 	 	 195 
  25 	 	 396 	 	 477 	 	 4 	 	 2337 	 	 2442 	 	 185 
  26 	 	 500 	 	 497 	 	 1 	 	 2288 	 	 2479 	 	 195 
  27 	 	 445 	 	 847 	 	 15 	 	 3577 	 	 3672 	 	 128 
  28 	 	 967 	 	 185 	 	 95 	 	 1199 	 	 1397 	 	 114 
  29 	 	 740 	 	 459 	 	 82 	 	 3100 	 	 3198 	 	 120 
  30 	 	 770 	 	 489 	 	 45 	 	 698 	 	 844 	 	 134 
  31 	 	 462 	 	 436 	 	 71 	 	 2580 	 	 2706 	 	 141 
  32 	 	 499 	 	 569 	 	 49 	 	 830 	 	 892 	 	 172 
  33 	 	 583 	 	 208 	 	 63 	 	 2591 	 	 2757 	 	 138 
  34 	 	 853 	 	 198 	 	 46 	 	 3652 	 	 3717 	 	 126 
  35 	 	 979 	 	 253 	 	 38 	 	 2339 	 	 2390 	 	 164 
  36 	 	 406 	 	 532 	 	 27 	 	 2244 	 	 2341 	 	 195 
  37 	 	 758 	 	 439 	 	 35 	 	 1227 	 	 1316 	 	 177 
  38 	 	 381 	 	 620 	 	 13 	 	 455 	 	 621 	 	 139 
  39 	 	 573 	 	 227 	 	 1 	 	 2209 	 	 2327 	 	 180 
  40 	 	 606 	 	 545 	 	 57 	 	 3021 	 	 3206 	 	 175 
  41 	 	 408 	 	 786 	 	 48 	 	 304 	 	 448 	 	 156 
  42 	 	 512 	 	 921 	 	 93 	 	 3621 	 	 3761 	 	 162 
  43 	 	 435 	 	 235 	 	 50 	 	 3643 	 	 3772 	 	 161 
  44 	 	 512 	 	 501 	 	 13 	 	 3990 	 	 4074 	 	 191 
  45 	 	 469 	 	 150 	 	 3 	 	 2849 	 	 2941 	 	 135 
  46 	 	 750 	 	 480 	 	 95 	 	 702 	 	 825 	 	 124 
  47 	 	 797 	 	 352 	 	 21 	 	 1968 	 	 2062 	 	 116 
  48 	 	 463 	 	 947 	 	 71 	 	 2742 	 	 2855 	 	 139 
  49 	 	 989 	 	 171 	 	 7 	 	 998 	 	 1191 	 	 173 
  50 	 	 575 	 	 870 	 	 38 	 	 551 	 	 714 	 	 165 
  51 	 	 489 	 	 714 	 	 77 	 	 1253 	 	 1392 	 	 200 
  52 	 	 610 	 	 535 	 	 80 	 	 4452 	 	 4610 	 	 175 
  53 	 	 847 	 	 39 	 	 79 	 	 1003 	 	 1134 	 	 190 
  54 	 	 528 	 	 516 	 	 80 	 	 4374 	 	 4444 	 	 100 
  55 	 	 132 	 	 177 	 	 86 	 	 2760 	 	 2934 	 	 189 
  56 	 	 168 	 	 200 	 	 48 	 	 1546 	 	 1660 	 	 144 
  57 	 	 360 	 	 726 	 	 48 	 	 285 	 	 380 	 	 134 
  58 	 	 367 	 	 8 	 	 4 	 	 3241 	 	 3389 	 	 167 
  59 	 	 735 	 	 691 	 	 19 	 	 1927 	 	 2106 	 	 130 
  60 	 	 985 	 	 710 	 	 12 	 	 972 	 	 1112 	 	 149 
  61 	 	 707 	 	 122 	 	 42 	 	 807 	 	 956 	 	 126 
  62 	 	 331 	 	 629 	 	 4 	 	 1364 	 	 1483 	 	 200 
  63 	 	 75 	 	 649 	 	 28 	 	 1129 	 	 1199 	 	 197 
  64 	 	 892 	 	 221 	 	 54 	 	 4412 	 	 4506 	 	 112 
  65 	 	 736 	 	 24 	 	 2 	 	 897 	 	 1050 	 	 191 
  66 	 	 294 	 	 37 	 	 34 	 	 1369 	 	 1458 	 	 115 
  67 	 	 346 	 	 203 	 	 61 	 	 3022 	 	 3207 	 	 198 
  68 	 	 396 	 	 305 	 	 88 	 	 506 	 	 579 	 	 167 
  69 	 	 706 	 	 330 	 	 30 	 	 2949 	 	 3015 	 	 146 
  70 	 	 186 	 	 381 	 	 96 	 	 1785 	 	 1901 	 	 175 
  71 	 	 678 	 	 135 	 	 60 	 	 3844 	 	 3919 	 	 165 
  72 	 	 324 	 	 835 	 	 57 	 	 2973 	 	 3037 	 	 132 
  73 	 	 80 	 	 536 	 	 72 	 	 833 	 	 996 	 	 152 
  74 	 	 817 	 	 938 	 	 68 	 	 3090 	 	 3217 	 	 194 
  75 	 	 280 	 	 401 	 	 41 	 	 4078 	 	 4232 	 	 177 
  76 	 	 166 	 	 20 	 	 64 	 	 2182 	 	 2282 	 	 157 
  77 	 	 790 	 	 341 	 	 23 	 	 3420 	 	 3513 	 	 122 
  78 	 	 674 	 	 989 	 	 50 	 	 605 	 	 805 	 	 115 
  79 	 	 505 	 	 947 	 	 32 	 	 997 	 	 1116 	 	 122 
  80 	 	 224 	 	 976 	 	 72 	 	 1797 	 	 1861 	 	 145 
  81 	 	 921 	 	 377 	 	 83 	 	 3366 	 	 3487 	 	 171 
  82 	 	 540 	 	 133 	 	 1 	 	 2493 	 	 2676 	 	 117 
  83 	 	 45 	 	 57 	 	 24 	 	 3205 	 	 3290 	 	 155 
  84 	 	 826 	 	 883 	 	 35 	 	 3163 	 	 3239 	 	 120 
  85 	 	 618 	 	 843 	 	 38 	 	 2860 	 	 2926 	 	 184 
  86 	 	 933 	 	 391 	 	 22 	 	 3112 	 	 3289 	 	 109 
  87 	 	 378 	 	 216 	 	 25 	 	 4454 	 	 4553 	 	 137 
  88 	 	 858 	 	 615 	 	 20 	 	 852 	 	 921 	 	 117 
  89 	 	 942 	 	 506 	 	 50 	 	 2950 	 	 3121 	 	 154 
  90 	 	 231 	 	 716 	 	 95 	 	 1254 	 	 1423 	 	 151 
  91 	 	 771 	 	 332 	 	 79 	 	 3727 	 	 3866 	 	 129 
  92 	 	 657 	 	 502 	 	 98 	 	 736 	 	 799 	 	 188 
  93 	 	 55 	 	 73 	 	 25 	 	 2220 	 	 2396 	 	 193 
  94 	 	 810 	 	 782 	 	 22 	 	 2984 	 	 3089 	 	 166 
  95 	 	 690 	 	 275 	 	 97 	 	 2802 	 	 2963 	 	 194 
  96 	 	 21 	 	 673 	 	 10 	 	 1567 	 	 1733 	 	 191 
  97 	 	 698 	 	 302 	 	 68 	 	 2098 	 	 2196 	 	 154 
  98 	 	 893 	 	 199 	 	 94 	 	 965 	 	 1083 	 	 168 
  99 	 	 190 	 	 125 	 	 98 	 	 1798 	 	 1921 	 	 106 
  100 	 	 743 	 	 70 	 	 94 	 	 967 	 	 1023 	 	 163 
 